# Solution for model r5_t36_m7_5 Batch Number: 4
# Finished Task: 36 / 36
# Makespan: 653.0, Total Distance: 668.0, Total Time: 32.1781
# R O S F Batch
0 0 6 0.0 0.0 -1
1 1 12 0.0 0.0 -1
2 2 33 0.0 0.0 -1
3 3 30 0.0 0.0 -1
4 4 13 0.0 0.0 -1
5 1 -1 620.0 653.0 3
6 0 35 334.0 361.0 0
7 1 5 560.0 582.0 3
8 1 32 461.0 496.0 2
9 0 10 476.0 505.0 3
10 0 26 525.0 556.0 3
11 3 19 500.0 526.0 2
12 1 23 85.0 124.0 0
13 4 39 48.0 70.0 0
14 4 18 270.0 309.0 0
15 2 29 286.0 315.0 2
16 4 21 189.0 213.0 0
17 0 9 429.0 467.0 1
18 4 37 330.0 356.0 0
19 3 27 556.0 594.0 3
20 4 38 108.0 138.0 0
21 4 14 225.0 248.0 0
22 3 24 408.0 434.0 2
23 1 40 209.0 236.0 0
24 3 11 461.0 488.0 2
25 3 31 324.0 351.0 0
26 0 -1 571.0 592.0 3
27 3 -1 631.0 653.0 3
28 4 -1 420.0 448.0 2
29 2 -1 429.0 461.0 2
30 3 34 225.0 259.0 0
31 3 22 382.0 408.0 0
32 1 7 505.0 525.0 3
33 2 15 180.0 210.0 0
34 3 25 275.0 301.0 0
35 0 17 379.0 408.0 0
36 1 8 333.0 363.0 2
37 4 28 370.0 408.0 0
38 4 16 142.0 163.0 0
39 4 20 77.0 108.0 0
40 1 36 269.0 300.0 0
